# Solution for model r10_t27_m3_7 Batch Number: 1
# Finished Task: 27 / 27
# Makespan: 769.0, Total Distance: 283.0, Total Time: 38.4737
# R O S F Batch
0 0 35 0.0 0.0 -1
1 1 36 0.0 0.0 -1
2 2 11 0.0 0.0 -1
3 3 19 0.0 0.0 -1
4 4 14 0.0 0.0 -1
5 5 25 0.0 0.0 -1
6 6 23 0.0 0.0 -1
7 7 16 0.0 0.0 -1
8 8 24 0.0 0.0 -1
9 9 21 0.0 0.0 -1
10 3 27 530.0 560.0 0
11 2 12 354.0 393.0 0
12 2 13 405.0 436.0 0
13 2 -1 739.0 769.0 0
14 4 20 326.0 346.0 0
15 9 -1 598.0 635.0 0
16 7 29 370.0 401.0 0
17 3 -1 657.0 695.0 0
18 3 10 491.0 521.0 0
19 3 18 273.0 297.0 0
20 4 26 381.0 407.0 0
21 9 30 246.0 283.0 0
22 3 17 608.0 642.0 0
23 6 -1 522.0 552.0 0
24 8 33 410.0 439.0 0
25 5 28 522.0 560.0 0
26 4 34 462.0 491.0 0
27 3 22 572.0 598.0 0
28 5 -1 572.0 601.0 0
29 7 32 420.0 459.0 0
30 9 15 552.0 572.0 0
31 4 -1 572.0 611.0 0
32 7 -1 469.0 490.0 0
33 8 -1 520.0 552.0 0
34 4 31 491.0 520.0 0
35 0 -1 731.0 769.0 0
36 1 -1 697.0 731.0 0
